RAW/XX/fspd/X-n125-k30.vrp_seed-8.out
40084	20.978	27.5
