RAW/XX/fspd/X-n125-k30.vrp_seed-8.sol
Route #1: 31 60 8 37
Route #2: 56 82 49 50 124 28 78 17
Route #3: 26 108 62 85 30 27 55 117
Route #4: 51 105 89 88 115 70 2 13
Route #5: 86 61 83 18 10
Route #6: 122 110 112 91 21
Route #7: 98 53 69
Route #8: 5 33 75
Route #9: 94 118 63 46 1 79 36 109
Route #10: 39 103 113
Route #11: 76 121 54 64 77 7 107 101 20
Route #12: 93 96 45 119 72 84
Route #13: 41 29 104 71 67
Route #14: 73 99 12 100
Route #15: 3 52 16 87 114 11 19 9 59 6 34
Route #16: 111 95 58 4 80 65 40 22 47 68 25
Route #17: 14 123 44 97 74 42 81 92 15 116 66 23 24
Route #18: 38 106 35 120
Route #19: 102 90 43 57 32 48
Cost 40084.000000